p edge 40 404 5
v 7 5 8 10 17 19 35 37
v 4 1 2 29 39
v 11 6 12 15 18 21 24 28 31 32 33 40
v 10 3 7 11 13 14 16 22 23 36 38
v 8 4 9 20 25 26 27 30 34
e 1 2
e 1 5
e 1 7
e 1 8
e 1 9
e 1 10
e 1 11
e 1 13
e 1 14
e 1 15
e 1 16
e 1 17
e 1 19
e 1 20
e 1 21
e 1 23
e 1 28
e 1 32
e 1 33
e 1 34
e 1 35
e 1 37
e 1 39
e 1 40
e 2 3
e 2 4
e 2 5
e 2 6
e 2 8
e 2 9
e 2 10
e 2 11
e 2 12
e 2 13
e 2 14
e 2 15
e 2 16
e 2 18
e 2 19
e 2 22
e 2 23
e 2 24
e 2 26
e 2 29
e 2 30
e 2 32
e 2 33
e 2 34
e 2 36
e 2 38
e 2 39
e 3 4
e 3 5
e 3 6
e 3 7
e 3 8
e 3 9
e 3 10
e 3 11
e 3 12
e 3 15
e 3 19
e 3 21
e 3 25
e 3 29
e 3 34
e 3 37
e 3 38
e 3 39
e 4 5
e 4 6
e 4 7
e 4 10
e 4 12
e 4 13
e 4 16
e 4 17
e 4 19
e 4 23
e 4 24
e 4 28
e 4 29
e 4 30
e 4 31
e 4 32
e 4 33
e 4 35
e 4 39
e 5 8
e 5 11
e 5 12
e 5 13
e 5 14
e 5 15
e 5 16
e 5 18
e 5 19
e 5 21
e 5 22
e 5 26
e 5 28
e 5 32
e 5 34
e 5 35
e 5 36
e 5 37
e 5 38
e 5 39
e 5 40
e 6 7
e 6 11
e 6 12
e 6 13
e 6 15
e 6 17
e 6 19
e 6 20
e 6 21
e 6 22
e 6 25
e 6 26
e 6 27
e 6 28
e 6 33
e 6 34
e 6 38
e 6 40
e 7 10
e 7 12
e 7 13
e 7 15
e 7 16
e 7 18
e 7 19
e 7 20
e 7 24
e 7 25
e 7 26
e 7 27
e 7 28
e 7 29
e 7 30
e 7 33
e 7 34
e 7 37
e 8 10
e 8 11
e 8 13
e 8 14
e 8 16
e 8 17
e 8 18
e 8 19
e 8 22
e 8 25
e 8 26
e 8 28
e 8 31
e 8 32
e 8 33
e 8 34
e 8 36
e 8 38
e 8 39
e 8 40
e 9 10
e 9 11
e 9 12
e 9 13
e 9 15
e 9 16
e 9 17
e 9 20
e 9 25
e 9 26
e 9 28
e 9 29
e 9 30
e 9 31
e 9 32
e 9 33
e 9 37
e 9 38
e 9 39
e 9 40
e 10 12
e 10 18
e 10 21
e 10 23
e 10 28
e 10 33
e 10 35
e 10 38
e 10 39
e 10 40
e 11 12
e 11 16
e 11 17
e 11 18
e 11 19
e 11 20
e 11 21
e 11 22
e 11 23
e 11 24
e 11 27
e 11 32
e 11 33
e 11 35
e 11 38
e 11 39
e 11 40
e 12 15
e 12 16
e 12 24
e 12 26
e 12 28
e 12 29
e 12 32
e 12 36
e 12 37
e 12 38
e 12 39
e 12 40
e 13 15
e 13 16
e 13 17
e 13 19
e 13 26
e 13 28
e 13 29
e 13 31
e 13 35
e 13 36
e 13 37
e 13 38
e 13 40
e 14 16
e 14 17
e 14 18
e 14 19
e 14 20
e 14 21
e 14 26
e 14 28
e 14 33
e 14 35
e 14 40
e 15 16
e 15 17
e 15 18
e 15 21
e 15 23
e 15 28
e 15 29
e 15 34
e 15 39
e 15 40
e 16 20
e 16 25
e 16 26
e 16 28
e 16 31
e 16 32
e 16 34
e 16 35
e 16 38
e 16 39
e 17 18
e 17 19
e 17 21
e 17 22
e 17 24
e 17 25
e 17 26
e 17 27
e 17 30
e 17 32
e 17 33
e 17 36
e 17 37
e 17 38
e 18 19
e 18 26
e 18 29
e 18 30
e 18 34
e 18 36
e 18 38
e 18 39
e 18 40
e 19 21
e 19 24
e 19 25
e 19 30
e 19 31
e 19 32
e 19 34
e 19 39
e 20 22
e 20 23
e 20 26
e 20 27
e 20 29
e 20 31
e 20 32
e 20 33
e 20 34
e 20 37
e 20 39
e 20 40
e 21 26
e 21 27
e 21 33
e 21 36
e 21 37
e 21 38
e 21 39
e 22 23
e 22 24
e 22 27
e 22 31
e 22 34
e 22 36
e 22 37
e 22 38
e 22 40
e 23 25
e 23 27
e 23 28
e 23 30
e 23 31
e 23 32
e 23 35
e 23 36
e 23 38
e 24 28
e 24 30
e 24 31
e 24 33
e 24 34
e 24 35
e 24 37
e 24 38
e 24 40
e 25 28
e 25 30
e 25 35
e 25 36
e 25 37
e 25 40
e 26 28
e 26 29
e 26 30
e 26 32
e 26 33
e 26 34
e 26 38
e 27 28
e 27 31
e 27 35
e 27 40
e 28 29
e 28 32
e 28 36
e 28 37
e 29 31
e 29 32
e 29 33
e 29 36
e 29 40
e 30 33
e 30 34
e 30 35
e 30 40
e 31 32
e 31 33
e 31 34
e 31 35
e 31 36
e 31 37
e 32 34
e 32 35
e 32 36
e 32 38
e 32 39
e 32 40
e 33 34
e 33 35
e 33 39
e 33 40
e 34 35
e 34 36
e 34 39
e 35 36
e 35 37
e 35 38
e 35 39
e 36 39
e 36 40
e 37 38
e 37 40
e 38 40
e 39 40
